92
	Energy:      82.6179694
H          6.62860        2.33796        3.86182
H          4.72029        2.99885        5.29037
C          5.70309        1.77819        3.81687
C          4.62807        2.15260        4.62190
C          5.59002        0.68647        2.95005
H          6.45303        0.45474        2.34771
C          3.43317        1.43749        4.56184
H          2.59754        1.72994        5.18461
H          6.39734        5.15718        0.25900
C          4.38795       -0.05522        2.87657
C          5.42922        5.15813       -0.22512
C          3.31113        0.34591        3.69800
H          5.64877        7.15196       -1.00311
H          4.95285        3.18913        0.44378
C          5.00702        6.28318       -0.93342
C          4.60266        4.03473       -0.13367
H          6.17408       -1.35761        1.34411
C          4.20449       -1.22415        1.95183
N          5.22592       -1.71650        1.18209
H          2.36683       -0.18351        3.67553
H          7.13775       -3.43133        0.69699
O          3.11034       -1.76680        1.92908
H          1.00797        5.15779        0.36438
C          0.46115        4.26997        0.07808
C          3.33374        4.01683       -0.75327
C          3.75480        6.28877       -1.54798
C         -0.89645        4.13801        0.11525
C          6.26139       -3.60788        0.08530
C          0.96887        3.07318       -0.39708
H         -1.58787        4.90533        0.43545
C          2.42557        2.81546       -0.65424
C          2.92310        5.16901       -1.45727
C          5.13142       -2.77827        0.21593
H          3.42716        7.16202       -2.09720
C         -1.18993        2.86305       -0.33732
N         -0.04382        2.20507       -0.62882
C          2.93477        1.55690       -0.81311
C          4.31203        1.22733       -1.19090
H          5.13566        1.88059       -1.43819
C          6.27763       -4.67943       -0.80347
N          2.24423        0.32222       -0.64926
H          1.96188        5.20044       -1.95409
H         -5.08754        2.25203        0.69822
C          4.38573       -0.13522       -1.21511
H          7.15519       -5.30893       -0.87638
C         -2.58230        2.32954       -0.51457
C         -4.92433        3.13679        0.09759
C          3.06262       -0.65713       -0.84249
C          3.99016       -3.02980       -0.62347
C         -3.70210        3.34088       -0.57937
C         -5.94704        4.08770        0.03420
H         -0.94578       -0.00363       -0.27265
H          5.27423       -0.69513       -1.47204
C          2.77657       -2.13126       -0.68611
H         -6.87633        3.91757        0.56250
N         -1.93559       -0.08924       -0.50735
N          0.35309       -1.98041       -0.67626
C         -2.85339        0.99383       -0.63522
C          1.52112       -2.66801       -0.59713
H          1.27371        0.21731       -0.35101
C         -3.54284        4.53685       -1.31241
C         -5.77101        5.25861       -0.70292
H         -4.21116       -2.74909        1.06465
C          1.25085       -4.01107       -0.38309
C         -0.64959       -2.88533       -0.53606
C         -4.56960        5.48319       -1.37476
C          5.16984       -4.93936       -1.59930
C         -0.10299       -4.14759       -0.34623
C         -2.56305       -1.20908       -0.65828
H         -2.62703        4.73610       -1.85402
H          1.94287       -4.82894       -0.24378
C         -1.98986       -2.60499       -0.54993
C          4.04538       -4.12179       -1.51882
H         -6.56428        5.99340       -0.75067
C         -4.16185        0.40729       -0.93569
C         -4.09076       -3.62286        0.43665
H         -4.43281        6.39196       -1.94660
H         -0.60161       -5.08856       -0.17021
C         -3.98004       -0.94521       -0.95439
C         -2.99649       -3.72621       -0.44792
H         -5.10531        0.89082       -1.14124
H         -5.86306       -4.55875        1.22326
C         -5.03220       -4.65127        0.53577
H          5.18870       -5.76645       -2.29738
H         -4.76281       -1.65942       -1.16820
H          3.22081       -4.32912       -2.18965
C         -2.88626       -4.89229       -1.23601
C         -4.90251       -5.79766       -0.24860
C         -3.83162       -5.91705       -1.13478
H         -2.07787       -5.00659       -1.94675
H         -5.63329       -6.59234       -0.17165
H         -3.73510       -6.80362       -1.74816
