Ag                                      
   1.00000000000000     
    28.6299999999999990    0.0000000000000000    0.0000000000000000
     0.0000000000000000   34.7048008200000027    0.0000000000000000
     0.0000000000000000    0.0000000000000000   40.0000000000000000
   S    O    N    C    H    Ag
     3    12     3    24    18   84
Selective dynamics
Direct
    0.1828250308      0.5689253714      0.3490252723       T   T   T
    0.4161410906      0.4229278740      0.3525670126       T   T   T
    0.6054637362      0.5355730458      0.3506630327       T   T   T
    0.1537214836      0.5616483446      0.3775819212       T   T   T
    0.2248141628      0.5918368776      0.3542621422       T   T   T
    0.1566346017      0.5792969962      0.3183481131       T   T   T
    0.2081964913      0.5254901960      0.3394652034       T   T   T
    0.3856960378      0.4650714479      0.3527953531       T   T   T
    0.4460119226      0.4267639417      0.3223700229       T   T   T
    0.3783015064      0.3955216232      0.3480940286       T   T   T
    0.4423129345      0.4217396069      0.3833146226       T   T   T
    0.5855473373      0.4900814691      0.3414262528       T   T   T
    0.5597606460      0.5546957831      0.3543892873       T   T   T
    0.6322386088      0.5315765488      0.3808212359       T   T   T
    0.6314557859      0.5473377838      0.3208246765       T   T   T
    0.1314147100      0.4449255942      0.3532567218       T   T   T
    0.4659388940      0.5450013525      0.3509133852       T   T   T
    0.6750745335      0.4182956061      0.3522066824       T   T   T
    0.1375168284      0.4846120083      0.3503606397       T   T   T
    0.1847350555      0.4917995869      0.3460244904       T   T   T
    0.2087040345      0.4556755003      0.3464911072       T   T   T
    0.1739618276      0.4265656165      0.3511087725       T   T   T
    0.2674340045      0.4054987354      0.3444182395       T   T   T
    0.2322316465      0.3772070570      0.3487657762       T   T   T
    0.2560953800      0.4448038315      0.3430762707       T   T   T
    0.1852490326      0.3874150362      0.3522828749       T   T   T
    0.4243076411      0.5641927689      0.3487873765       T   T   T
    0.4581887656      0.5057650766      0.3513632915       T   T   T
    0.4103128907      0.4990168822      0.3503316284       T   T   T
    0.4146415829      0.6039022435      0.3464609731       T   T   T
    0.3675628757      0.6151413684      0.3466896484       T   T   T
    0.3311832930      0.5878199941      0.3490632598       T   T   T
    0.3406063480      0.5485104598      0.3500893537       T   T   T
    0.3874070729      0.5360133304      0.3490363469       T   T   T
    0.6143463224      0.4589258703      0.3463610918       T   T   T
    0.6625496185      0.4569880577      0.3493892881       T   T   T
    0.6359134701      0.3953966268      0.3504429405       T   T   T
    0.6311596530      0.3551808614      0.3516319224       T   T   T
    0.5861312441      0.3399318713      0.3500131628       T   T   T
    0.5466025913      0.3641093007      0.3473913789       T   T   T
    0.5512503206      0.4043388354      0.3458321674       T   T   T
    0.5964370728      0.4203574173      0.3471228965       T   T   T
    0.1006147350      0.4319968338      0.3587954029       T   T   T
    0.1084554077      0.5043995427      0.3530090743       T   T   T
    0.2425252817      0.3470305221      0.3513721314       T   T   T
    0.3041105914      0.3970641733      0.3435212256       T   T   T
    0.2839239710      0.4663052021      0.3424516137       T   T   T
    0.1584083165      0.3654307891      0.3556954626       T   T   T
    0.4988631740      0.5564608388      0.3493110806       T   T   T
    0.4870868925      0.4858137463      0.3536157343       T   T   T
    0.4427123356      0.6252059628      0.3470014652       T   T   T
    0.3589643700      0.6457667540      0.3456685863       T   T   T
    0.2950507679      0.5976465590      0.3505681529       T   T   T
    0.3120398290      0.5278115177      0.3519088143       T   T   T
    0.7083934510      0.4087288236      0.3545021576       T   T   T
    0.5201211799      0.4224248858      0.3468955117       T   T   T
    0.5115493690      0.3517343248      0.3489740204       T   T   T
    0.5813923613      0.3087657933      0.3513096147       T   T   T
    0.6615270881      0.3364654910      0.3548109395       T   T   T
    0.6881863066      0.4797582747      0.3522023755       T   T   T
  0.0716029862438461  0.0417474330790313  0.2803889320346755   T   T   T
  0.2144270399346198  0.0417673090150714  0.2803399495692958   T   T   T
  0.3573955508260056  0.0417535032688860  0.2807312691912784   T   T   T
  0.4998424681426528  0.0416939158548928  0.2807553247575711   T   T   T
  0.6426745390716775  0.0417055787988687  0.2804852981196788   T   T   T
  0.7855632749920503  0.0416687163004426  0.2803883580257676   T   T   T
  0.9284490549820887  0.0416665263065354  0.2803732180795322   T   T   T
  0.0715742040397345  0.1250495430241116  0.2804077670025364   T   T   T
  0.2144552627291745  0.1250560726339813  0.2804239619483369   T   T   T
  0.3571704431443408  0.1249757683596044  0.2807191338967385   T   T   T
  0.4998380775530578  0.1249859861541012  0.2807569686863545   T   T   T
  0.6427928680376453  0.1248584361142449  0.2806116990003247   T   T   T
  0.7856133292272958  0.1249471390855561  0.2804746564193792   T   T   T
  0.9284440456067813  0.1249925425394736  0.2804533179039197   T   T   T
  0.0715487628512790  0.2083463511340398  0.2804889166516986   T   T   T
  0.2143845344058093  0.2083945948341466  0.2807964905503724   T   T   T
  0.3570753097865449  0.2080852639708795  0.2808508185865506   T   T   T
  0.4999566731922940  0.2080098748620998  0.2809417373555263   T   T   T
  0.6427949063353111  0.2080333419825919  0.2808656045747711   T   T   T
  0.7857270376484422  0.2081974988129929  0.2807916303815290   T   T   T
  0.9285050814826903  0.2082386628566724  0.2805175764186103   T   T   T
  0.0712541990204016  0.2915327404439267  0.2807684198662841   T   T   T
  0.2144345188623262  0.2917111448908685  0.2811716215309303   T   T   T
  0.3569897739739787  0.2911195867804111  0.2807834920708174   T   T   T
  0.4998495363574378  0.2911894573369409  0.2810391600379631   T   T   T
  0.6430235397481638  0.2910579548209711  0.2807935837276077   T   T   T
  0.7858443181263084  0.2914142491853937  0.2810542911836649   T   T   T
  0.9286539219208265  0.2913745003125072  0.2807976457789181   T   T   T
  0.0708929548657693  0.3747748316620232  0.2807629113080168   T   T   T
  0.2142377594109917  0.3746981572646391  0.2804741204637367   T   T   T
  0.3569818339821254  0.3743153738683986  0.2809319446861309   T   T   T
  0.4999568317578422  0.3745144032007772  0.2812462720045588   T   T   T
  0.6431662667207476  0.3742123082816207  0.2804880054202528   T   T   T
  0.7859440473198589  0.3744460380635957  0.2803472667377562   T   T   T
  0.9289028463501339  0.3746667345767420  0.2810211789126100   T   T   T
  0.0710630583684093  0.4582081579526829  0.2806421536151689   T   T   T
  0.2135490455985618  0.4576718874995223  0.2794542914239670   T   T   T
  0.3587651452842167  0.4587845245505875  0.2797809015182864   T   T   T
  0.4990908524099495  0.4580771195240558  0.2773876365126213   T   T   T
  0.6435281506420765  0.4573363241349426  0.2801898576952198   T   T   T
  0.7866290317087561  0.4573134454194303  0.2777279628357689   T   T   T
  0.9285821299788566  0.4581766407733951  0.2810104367730801   T   T   T
  0.0711851651002391  0.5416293751077745  0.2805666771019020   T   T   T
  0.2139166502537506  0.5406128411809235  0.2795749808413674   T   T   T
  0.3567977744125415  0.5424086946025781  0.2794931592063392   T   T   T
  0.5006478902590459  0.5422056392102732  0.2800866665746824   T   T   T
  0.6426459270636045  0.5408422893724776  0.2795120466043883   T   T   T
  0.7855727722173214  0.5404193092944922  0.2802055423711991   T   T   T
  0.9284160772659718  0.5416211492203118  0.2810473988261180   T   T   T
  0.0712757691966601  0.6249991794538730  0.2803902907484428   T   T   T
  0.2140714725458466  0.6258637180125532  0.2807898533974509   T   T   T
  0.3552466045402269  0.6255055476067639  0.2811266124146243   T   T   T
  0.5003504458626722  0.6273739303846000  0.2804646472412315   T   T   T
  0.6438980448448461  0.6254143572979629  0.2805500315774410   T   T   T
  0.7848291811357555  0.6252967963938261  0.2811771124312656   T   T   T
  0.9282808390131407  0.6249437548404799  0.2805561569902864   T   T   T
  0.0712811028000644  0.7084601320507886  0.2803763429465747   T   T   T
  0.2143561629528179  0.7089504986675408  0.2808100486654794   T   T   T
  0.3562825140578880  0.7092347315991248  0.2805464983429431   T   T   T
  0.5001637395963172  0.7100978823210724  0.2795748527313719   T   T   T
  0.6435636028766965  0.7090568461460478  0.2806920065628802   T   T   T
  0.7852501597750319  0.7087207066579424  0.2808448066206353   T   T   T
  0.9282690276704813  0.7083474663678047  0.2805330246392970   T   T   T
  0.0713640939796960  0.7917276522226189  0.2805135378893411   T   T   T
  0.2141902866104246  0.7921381027911210  0.2807699367040684   T   T   T
  0.3568627689440476  0.7922577625819187  0.2809733075579928   T   T   T
  0.5000467961477426  0.7923899717424874  0.2808031624949905   T   T   T
  0.6432033654514342  0.7922478873403023  0.2809777186487281   T   T   T
  0.7857034610753502  0.7920136870499448  0.2808618990460090   T   T   T
  0.9282905295298747  0.7916241908848960  0.2805828562924191   T   T   T
  0.0714578590645303  0.8749768211787838  0.2804690789400652   T   T   T
  0.2142991051623611  0.8752479801060389  0.2806840623533802   T   T   T
  0.3572009285360593  0.8753992606061942  0.2808065651484597   T   T   T
  0.4999693638133422  0.8753476611080586  0.2807496210481162   T   T   T
  0.6428849026020984  0.8753626375960408  0.2807735498414559   T   T   T
  0.7856823742683829  0.8751720826796969  0.2807295316705307   T   T   T
  0.9284740177169937  0.8749571794253157  0.2804284012626894   T   T   T
  0.0716081183669885  0.9583407473352352  0.2804293103130888   T   T   T
  0.2144212149666700  0.9585286611162758  0.2803906511567220   T   T   T
  0.3573122214695559  0.9585421738232824  0.2806759536515528   T   T   T
  0.4998968207833343  0.9585308145733435  0.2807347828247444   T   T   T
  0.6427754147726219  0.9585384705111650  0.2805295167214439   T   T   T
  0.7855238591011684  0.9584243277282383  0.2804647329239813   T   T   T
  0.9285150624057366  0.9583004065102543  0.2803695115716991   T   T   T
  0.0000000000000000  0.0000000000000000  0.1749999999999972   F   F   F
  0.1428571428571459  0.0000000000000000  0.1749999999999972   F   F   F
  0.2857142857142847  0.0000000000000000  0.1749999999999972   F   F   F
  0.4285714285714306  0.0000000000000000  0.1749999999999972   F   F   F
  0.5714285714285694  0.0000000000000000  0.1749999999999972   F   F   F
  0.7142857142857153  0.0000000000000000  0.1749999999999972   F   F   F
  0.8571428571428541  0.0000000000000000  0.1749999999999972   F   F   F
  0.0000000000000000  0.0833333333333357  0.1749999999999972   F   F   F
  0.1428571428571459  0.0833333333333357  0.1749999999999972   F   F   F
  0.2857142857142847  0.0833333333333357  0.1749999999999972   F   F   F
  0.4285714285714306  0.0833333333333357  0.1749999999999972   F   F   F
  0.5714285714285694  0.0833333333333357  0.1749999999999972   F   F   F
  0.7142857142857153  0.0833333333333357  0.1749999999999972   F   F   F
  0.8571428571428541  0.0833333333333357  0.1749999999999972   F   F   F
  0.0000000000000000  0.1666666666666643  0.1749999999999972   F   F   F
  0.1428571428571459  0.1666666666666643  0.1749999999999972   F   F   F
  0.2857142857142847  0.1666666666666643  0.1749999999999972   F   F   F
  0.4285714285714306  0.1666666666666643  0.1749999999999972   F   F   F
  0.5714285714285694  0.1666666666666643  0.1749999999999972   F   F   F
  0.7142857142857153  0.1666666666666643  0.1749999999999972   F   F   F
  0.8571428571428541  0.1666666666666643  0.1749999999999972   F   F   F
  0.0000000000000000  0.2500000000000000  0.1749999999999972   F   F   F
  0.1428571428571459  0.2500000000000000  0.1749999999999972   F   F   F
  0.2857142857142847  0.2500000000000000  0.1749999999999972   F   F   F
  0.4285714285714306  0.2500000000000000  0.1749999999999972   F   F   F
  0.5714285714285694  0.2500000000000000  0.1749999999999972   F   F   F
  0.7142857142857153  0.2500000000000000  0.1749999999999972   F   F   F
  0.8571428571428541  0.2500000000000000  0.1749999999999972   F   F   F
  0.0000000000000000  0.3333333333333357  0.1749999999999972   F   F   F
  0.1428571428571459  0.3333333333333357  0.1749999999999972   F   F   F
  0.2857142857142847  0.3333333333333357  0.1749999999999972   F   F   F
  0.4285714285714306  0.3333333333333357  0.1749999999999972   F   F   F
  0.5714285714285694  0.3333333333333357  0.1749999999999972   F   F   F
  0.7142857142857153  0.3333333333333357  0.1749999999999972   F   F   F
  0.8571428571428541  0.3333333333333357  0.1749999999999972   F   F   F
  0.0000000000000000  0.4166666666666643  0.1749999999999972   F   F   F
  0.1428571428571459  0.4166666666666643  0.1749999999999972   F   F   F
  0.2857142857142847  0.4166666666666643  0.1749999999999972   F   F   F
  0.4285714285714306  0.4166666666666643  0.1749999999999972   F   F   F
  0.5714285714285694  0.4166666666666643  0.1749999999999972   F   F   F
  0.7142857142857153  0.4166666666666643  0.1749999999999972   F   F   F
  0.8571428571428541  0.4166666666666643  0.1749999999999972   F   F   F
  0.0000000000000000  0.5000000000000000  0.1749999999999972   F   F   F
  0.1428571428571459  0.5000000000000000  0.1749999999999972   F   F   F
  0.2857142857142847  0.5000000000000000  0.1749999999999972   F   F   F
  0.4285714285714306  0.5000000000000000  0.1749999999999972   F   F   F
  0.5714285714285694  0.5000000000000000  0.1749999999999972   F   F   F
  0.7142857142857153  0.5000000000000000  0.1749999999999972   F   F   F
  0.8571428571428541  0.5000000000000000  0.1749999999999972   F   F   F
  0.0000000000000000  0.5833333333333357  0.1749999999999972   F   F   F
  0.1428571428571459  0.5833333333333357  0.1749999999999972   F   F   F
  0.2857142857142847  0.5833333333333357  0.1749999999999972   F   F   F
  0.4285714285714306  0.5833333333333357  0.1749999999999972   F   F   F
  0.5714285714285694  0.5833333333333357  0.1749999999999972   F   F   F
  0.7142857142857153  0.5833333333333357  0.1749999999999972   F   F   F
  0.8571428571428541  0.5833333333333357  0.1749999999999972   F   F   F
  0.0000000000000000  0.6666666666666643  0.1749999999999972   F   F   F
  0.1428571428571459  0.6666666666666643  0.1749999999999972   F   F   F
  0.2857142857142847  0.6666666666666643  0.1749999999999972   F   F   F
  0.4285714285714306  0.6666666666666643  0.1749999999999972   F   F   F
  0.5714285714285694  0.6666666666666643  0.1749999999999972   F   F   F
  0.7142857142857153  0.6666666666666643  0.1749999999999972   F   F   F
  0.8571428571428541  0.6666666666666643  0.1749999999999972   F   F   F
  0.0000000000000000  0.7500000000000000  0.1749999999999972   F   F   F
  0.1428571428571459  0.7500000000000000  0.1749999999999972   F   F   F
  0.2857142857142847  0.7500000000000000  0.1749999999999972   F   F   F
  0.4285714285714306  0.7500000000000000  0.1749999999999972   F   F   F
  0.5714285714285694  0.7500000000000000  0.1749999999999972   F   F   F
  0.7142857142857153  0.7500000000000000  0.1749999999999972   F   F   F
  0.8571428571428541  0.7500000000000000  0.1749999999999972   F   F   F
  0.0000000000000000  0.8333333333333357  0.1749999999999972   F   F   F
  0.1428571428571459  0.8333333333333357  0.1749999999999972   F   F   F
  0.2857142857142847  0.8333333333333357  0.1749999999999972   F   F   F
  0.4285714285714306  0.8333333333333357  0.1749999999999972   F   F   F
  0.5714285714285694  0.8333333333333357  0.1749999999999972   F   F   F
  0.7142857142857153  0.8333333333333357  0.1749999999999972   F   F   F
  0.8571428571428541  0.8333333333333357  0.1749999999999972   F   F   F
  0.0000000000000000  0.9166666666666643  0.1749999999999972   F   F   F
  0.1428571428571459  0.9166666666666643  0.1749999999999972   F   F   F
  0.2857142857142847  0.9166666666666643  0.1749999999999972   F   F   F
  0.4285714285714306  0.9166666666666643  0.1749999999999972   F   F   F
  0.5714285714285694  0.9166666666666643  0.1749999999999972   F   F   F
  0.7142857142857153  0.9166666666666643  0.1749999999999972   F   F   F
  0.8571428571428541  0.9166666666666643  0.1749999999999972   F   F   F
  0.0714338305475763  0.0417104996627131  0.2079937380831609   T   T   T
  0.2143718556372747  0.0417067362859456  0.2078848788696419   T   T   T
  0.3571678405579206  0.0416617211539076  0.2080944083080567   T   T   T
  0.4999904255600356  0.0416639663995468  0.2080803872307371   T   T   T
  0.6428272138890563  0.0416476541003021  0.2080175249037310   T   T   T
  0.7856758856706634  0.0416926352636153  0.2079331832824849   T   T   T
  0.9285724191490701  0.0416657130561262  0.2080086490296793   T   T   T
  0.0714358561228465  0.1250276391822709  0.2080168938352571   T   T   T
  0.2143562054873129  0.1250142766123830  0.2078865428690690   T   T   T
  0.3571673110298761  0.1249963639469556  0.2080528416028642   T   T   T
  0.4999761311156732  0.1249952614763288  0.2080872384011059   T   T   T
  0.6428098370849966  0.1249679678204245  0.2080517680129859   T   T   T
  0.7856768048239857  0.1250089044113878  0.2079689755790426   T   T   T
  0.9285696215718815  0.1250193232563817  0.2079926626672659   T   T   T
  0.0714812741570725  0.2083406520958277  0.2080612811773932   T   T   T
  0.2143092775531272  0.2083385645009841  0.2080934575810218   T   T   T
  0.3571316217958866  0.2083295210851830  0.2081885297708297   T   T   T
  0.4999882420231785  0.2082972065484654  0.2081056262639649   T   T   T
  0.6428282899216171  0.2082671955545052  0.2081686586311378   T   T   T
  0.7856935147593589  0.2083039128272404  0.2081374036024073   T   T   T
  0.9285373212470134  0.2082931718413548  0.2079928692822293   T   T   T
  0.0714642956171616  0.2916058270365625  0.2081097725251908   T   T   T
  0.2142663351793033  0.2916237627470721  0.2082440351522123   T   T   T
  0.3571735428764597  0.2914712341253249  0.2080878392868755   T   T   T
  0.5000172708401962  0.2914225533347548  0.2082774446599842   T   T   T
  0.6427524072512583  0.2913585226195039  0.2081365999733507   T   T   T
  0.7858454052821813  0.2914676322021208  0.2081300236344390   T   T   T
  0.9285044841967931  0.2916046505233467  0.2081084494131815   T   T   T
  0.0713705910475326  0.3749053368536934  0.2080578753566371   T   T   T
  0.2141808053616856  0.3748297713749622  0.2081541478382078   T   T   T
  0.3570151168295865  0.3747378268680990  0.2086909341605718   T   T   T
  0.5000100052732819  0.3746474829166999  0.2086074951149044   T   T   T
  0.6429541096192324  0.3745449470189826  0.2083313547479051   T   T   T
  0.7860373096603439  0.3746984610367008  0.2080657166661624   T   T   T
  0.9286991348291025  0.3748373953088375  0.2080146488698631   T   T   T
  0.0712179213059798  0.4582589169467468  0.2080571812557750   T   T   T
  0.2140099097060713  0.4581121294367065  0.2079336139093186   T   T   T
  0.3570969238493404  0.4581045770798085  0.2086716318625008   T   T   T
  0.5000431002233299  0.4582912317294827  0.2074995758847820   T   T   T
  0.6427291409366305  0.4580213549892633  0.2086078174081010   T   T   T
  0.7860954094170509  0.4582005678968173  0.2071278384778950   T   T   T
  0.9287674498395830  0.4582918086225831  0.2080430444244072   T   T   T
  0.0711142796538766  0.5416697461898181  0.2080221175352008   T   T   T
  0.2139633122467970  0.5415582283113736  0.2083751787195283   T   T   T
  0.3571888052182501  0.5417692734284714  0.2082950475293757   T   T   T
  0.5000728831541963  0.5420529025848921  0.2087128667076428   T   T   T
  0.6428784477138620  0.5418425754182934  0.2081664269745858   T   T   T
  0.7860536058861527  0.5416173127894979  0.2084191362624850   T   T   T
  0.9286205468463535  0.5417705323531052  0.2081281155804646   T   T   T
  0.0712872032144958  0.6251000658525712  0.2080960183396812   T   T   T
  0.2139988744865917  0.6251088842374060  0.2086320018870467   T   T   T
  0.3570981534141424  0.6252851886476449  0.2089200868852217   T   T   T
  0.4999547442141363  0.6254737051268009  0.2091238136590334   T   T   T
  0.6429806582799884  0.6252518744428173  0.2087689692856571   T   T   T
  0.7858885142030942  0.6250652967469392  0.2086232733228499   T   T   T
  0.9284430044990657  0.6250389937114917  0.2081390302036681   T   T   T
  0.0714520122798490  0.7083816393885343  0.2080254584732941   T   T   T
  0.2141550579294815  0.7086623383485318  0.2080253919405024   T   T   T
  0.3569604503751123  0.7086751384462531  0.2080331979549612   T   T   T
  0.4999618097042173  0.7085087201670675  0.2080305729364156   T   T   T
  0.6430443536633064  0.7086953914913181  0.2079616598416294   T   T   T
  0.7857960685461052  0.7085655096595573  0.2080886795029215   T   T   T
  0.9283676577622799  0.7082981241144211  0.2081000613685333   T   T   T
  0.0713900120888482  0.7916748549711201  0.2079970922841596   T   T   T
  0.2142681050304986  0.7918258363803545  0.2080532276846938   T   T   T
  0.3570830586564497  0.7918751774116330  0.2081530412087247   T   T   T
  0.5000222482394534  0.7917904363814259  0.2081719353689238   T   T   T
  0.6429122262651035  0.7918909588604421  0.2081270039839609   T   T   T
  0.7856848865179060  0.7917606830514785  0.2081470948746400   T   T   T
  0.9285269974614820  0.7916728402739324  0.2080216149931573   T   T   T
  0.0714221169626015  0.8749949544744453  0.2079926818361102   T   T   T
  0.2143445597958262  0.8750601321909670  0.2081063633991107   T   T   T
  0.3571426218238898  0.8751320831084684  0.2080196020971670   T   T   T
  0.5000010475834884  0.8749993698792551  0.2081352223373187   T   T   T
  0.6428591267130557  0.8751314002293427  0.2080513086984723   T   T   T
  0.7856753392053761  0.8750424492281397  0.2080613024122755   T   T   T
  0.9285579473740171  0.8750068968921454  0.2080046746777882   T   T   T
  0.0714395003271378  0.9583482581681579  0.2080226169176456   T   T   T
  0.2143470797916152  0.9583865438891621  0.2079981045435915   T   T   T
  0.3571693916805643  0.9584093616995517  0.2079935644534174   T   T   T
  0.5000450671638390  0.9583465465288796  0.2080133895413567   T   T   T
  0.6428336964415990  0.9583707351809707  0.2079925263084661   T   T   T
  0.7856866633773762  0.9583548871134440  0.2079802317915949   T   T   T
  0.9285590856493044  0.9583150393182152  0.2080037761415241   T   T   T
  0.0000616085251224  0.0000046586673008  0.2474780577265321   T   T   T
  0.1429319842942789  0.0000442856476113  0.2474390360680161   T   T   T
  0.2859819321935078  0.0001107665975653  0.2474756035236325   T   T   T
  0.4285993068396863  0.0000639125008277  0.2474925337368745   T   T   T
  0.5712533215827236  0.0000665905461474  0.2475011143235974   T   T   T
  0.7141463403230972  0.0000410368913748  0.2474294521573839   T   T   T
  0.8570412775144831  0.9999849448340257  0.2474540413762583   T   T   T
  0.0000001602766773  0.0833742390204861  0.2474982382780837   T   T   T
  0.1429674452650715  0.0834037086983841  0.2474798750756833   T   T   T
  0.2859327836842738  0.0833481148977739  0.2475244456043271   T   T   T
  0.4285969325388237  0.0833496287232265  0.2475556604081106   T   T   T
  0.5711877133693832  0.0833466685730784  0.2475938197481682   T   T   T
  0.7142010622914583  0.0833337821868056  0.2474758715865306   T   T   T
  0.8570696401473583  0.0833445085357809  0.2474790663742681   T   T   T
  0.0000058134874763  0.1666691096207202  0.2475467089857162   T   T   T
  0.1430776359445716  0.1667576944104709  0.2474809547966856   T   T   T
  0.2857608879969007  0.1666882818203064  0.2475169687564787   T   T   T
  0.4285370172824443  0.1666248044543082  0.2475937879038597   T   T   T
  0.5713615469914544  0.1665637211664830  0.2475956460503994   T   T   T
  0.7142354605104515  0.1666193602490935  0.2475869199544718   T   T   T
  0.8570373249161491  0.1666661254469872  0.2474822126715495   T   T   T
  0.9999733549351575  0.2499196918424502  0.2475051831530450   T   T   T
  0.1430791684621866  0.2500820160000146  0.2477522074630656   T   T   T
  0.2855856156223311  0.2498659632723488  0.2476640135703647   T   T   T
  0.4286180802842452  0.2497095913508360  0.2477365954175426   T   T   T
  0.5712917125147925  0.2496824530008652  0.2477773865148478   T   T   T
  0.7144076742005012  0.2496964213677799  0.2477472961211120   T   T   T
  0.8570514901747899  0.2498776447626057  0.2476608887682445   T   T   T
  0.9998907501919945  0.3331520624940296  0.2475542373972175   T   T   T
  0.1426655633230141  0.3330998236223337  0.2478310216876167   T   T   T
  0.2856261747266444  0.3330050978120624  0.2477742833746959   T   T   T
  0.4285372563806504  0.3328327331716139  0.2479250860878821   T   T   T
  0.5713183339078327  0.3327657472465830  0.2480800693248852   T   T   T
  0.7144966374076276  0.3326521752318143  0.2474834502450918   T   T   T
  0.8574068789358691  0.3329739369642795  0.2478506655891053   T   T   T
  0.9997534973305591  0.4165591211853865  0.2476177406609068   T   T   T
  0.1421403579973486  0.4162275791458896  0.2475799816495794   T   T   T
  0.2859508671337068  0.4164865658835524  0.2472379483046723   T   T   T
  0.4284643953035925  0.4158955575497316  0.2464467462541933   T   T   T
  0.5717921189831188  0.4156000491355627  0.2463090332819675   T   T   T
  0.7145654804084813  0.4158418235100072  0.2461939681455547   T   T   T
  0.8583325970167479  0.4159938085754646  0.2473463015720228   T   T   T
  0.9996595132945956  0.4999495006685848  0.2476916451471496   T   T   T
  0.1420971492196301  0.4998736827138188  0.2474686627401681   T   T   T
  0.2857262278886452  0.4995246955071337  0.2468013323108238   T   T   T
  0.4287882977259869  0.5008977411795499  0.2466982732730472   T   T   T
  0.5719539236492324  0.5002321464740547  0.2462116923474511   T   T   T
  0.7142463249259237  0.4994125576134891  0.2465713552921471   T   T   T
  0.8581330545095440  0.5000257236797481  0.2474625148954956   T   T   T
  0.9997267766742581  0.5832720939758573  0.2476157235096537   T   T   T
  0.1425289123079736  0.5834081992758584  0.2472964858072970   T   T   T
  0.2851066858542595  0.5834326623965751  0.2458293798326423   T   T   T
  0.4284462786751533  0.5844461037170916  0.2475096563333210   T   T   T
  0.5716543853091594  0.5841459407231824  0.2473172526392773   T   T   T
  0.7145591721855666  0.5830332478511195  0.2460477954508491   T   T   T
  0.8566985931010080  0.5833098738345441  0.2479192667168917   T   T   T
  0.9997436693066746  0.6666790992500538  0.2475367984258199   T   T   T
  0.1429379141099787  0.6668351646043789  0.2477074870729226   T   T   T
  0.2851116683517674  0.6673130163642824  0.2470308984165612   T   T   T
  0.4274286964847462  0.6674254244602906  0.2476820594668325   T   T   T
  0.5725259535403993  0.6675614277699253  0.2475758143417153   T   T   T
  0.7145427834659586  0.6670948265817032  0.2470834577961867   T   T   T
  0.8565224065991472  0.6665390398996323  0.2479678760139024   T   T   T
  0.9997798436825889  0.7500650891706897  0.2475792224047169   T   T   T
  0.1429476912385894  0.7501983865595179  0.2475626461982472   T   T   T
  0.2853629698307998  0.7506481225359565  0.2474966823347202   T   T   T
  0.4280428822290716  0.7507614798481086  0.2476748969012306   T   T   T
  0.5721423626866837  0.7508357427769070  0.2476324601632953   T   T   T
  0.7144553897061456  0.7505155945011381  0.2475050934696412   T   T   T
  0.8568013571175754  0.7500344973204989  0.2476107567054626   T   T   T
  0.9999051671089276  0.8332693129700388  0.2475164729254686   T   T   T
  0.1428812887177031  0.8334165326656233  0.2475372841288745   T   T   T
  0.2857524886289937  0.8336729531165901  0.2476816451329000   T   T   T
  0.4284396850739327  0.8336590721881976  0.2476849865790030   T   T   T
  0.5715751050899343  0.8336852553817025  0.2477012856341929   T   T   T
  0.7143403546883320  0.8336338448251226  0.2476817720909779   T   T   T
  0.8570018486246980  0.8333401563705962  0.2475135981089025   T   T   T
  0.0000312932289077  0.9166274209193332  0.2474923897633587   T   T   T
  0.1429418137027270  0.9166741646136956  0.2474840950325543   T   T   T
  0.2858223956836738  0.9168108945536204  0.2475695289122513   T   T   T
  0.4286145317680550  0.9168077194190829  0.2475602307697287   T   T   T
  0.5713447913889169  0.9168166159369378  0.2476151897288901   T   T   T
  0.7142343090724594  0.9167662979276514  0.2475298653580325   T   T   T
  0.8570106989035935  0.9166555699414616  0.2475070436649034   T   T   T 